####################################################################### 
# 
# This file contains crystal structure data downloaded from the 
# Cambridge Structural Database (CSD) hosted by the Cambridge 
# Crystallographic Data Centre (CCDC).
# 
# Full information about CCDC data access policies and citation 
# guidelines are available at http://www.ccdc.cam.ac.uk/access/V1 
# 
# Audit and citation data items may have been added by the CCDC. 
# Please retain this information to preserve the provenance of 
# this file and to allow appropriate attribution of the data. 
# 
#######################################################################

data_2
_audit_block_doi                 10.5517/ccwh22h
_database_code_depnum_ccdc_archive 'CCDC 818836'
loop_
_citation_id
_citation_doi
_citation_year
1 10.1016/j.solidstatesciences.2012.07.011 2012
_audit_update_record             
;
2011-03-25 deposited with the CCDC.	2021-07-14 downloaded from the CCDC.
;
#TrackingRef '- check.cif'


_audit_creation_method           SHELXL-97
_chemical_name_systematic        
;
?
;
_chemical_name_common            ?
_chemical_melting_point          ?
_chemical_formula_moiety         'C15 H12 Co N2 O5'
_chemical_formula_sum            'C15 H12 Co N2 O5'
_chemical_formula_weight         359.20

loop_
_atom_type_symbol
_atom_type_description
_atom_type_scat_dispersion_real
_atom_type_scat_dispersion_imag
_atom_type_scat_source
C C 0.0033 0.0016 'International Tables Vol C Tables 4.2.6.8 and 6.1.1.4'
H H 0.0000 0.0000 'International Tables Vol C Tables 4.2.6.8 and 6.1.1.4'
N N 0.0061 0.0033 'International Tables Vol C Tables 4.2.6.8 and 6.1.1.4'
O O 0.0106 0.0060 'International Tables Vol C Tables 4.2.6.8 and 6.1.1.4'
Co Co 0.3494 0.9721 'International Tables Vol C Tables 4.2.6.8 and 6.1.1.4'

_symmetry_cell_setting           monoclinic
_symmetry_space_group_name_H-M   P21/c

loop_
_symmetry_equiv_pos_as_xyz
'x, y, z'
'-x, y+1/2, -z+1/2'
'-x, -y, -z'
'x, -y-1/2, z-1/2'

_cell_length_a                   7.3352(18)
_cell_length_b                   11.320(3)
_cell_length_c                   17.676(4)
_cell_angle_alpha                90.00
_cell_angle_beta                 90.120(5)
_cell_angle_gamma                90.00
_cell_volume                     1467.7(6)
_cell_formula_units_Z            4
_cell_measurement_temperature    293(2)
_cell_measurement_reflns_used    3740
_cell_measurement_theta_min      3.0043
_cell_measurement_theta_max      27.4797

_exptl_crystal_description       prism
_exptl_crystal_colour            pink
_exptl_crystal_size_max          0.20
_exptl_crystal_size_mid          0.20
_exptl_crystal_size_min          0.20
_exptl_crystal_density_meas      ?
_exptl_crystal_density_diffrn    1.626
_exptl_crystal_density_method    'not measured'
_exptl_crystal_F_000             732
_exptl_absorpt_coefficient_mu    1.197
_exptl_absorpt_correction_type   Multi-scan
_exptl_absorpt_correction_T_min  0.7958
_exptl_absorpt_correction_T_max  0.7958
_exptl_absorpt_process_details   ?

_exptl_special_details           
;
?
;

_diffrn_ambient_temperature      293(2)
_diffrn_radiation_wavelength     0.71073
_diffrn_radiation_type           MoK\a
_diffrn_radiation_source         'fine-focus sealed tube'
_diffrn_radiation_monochromator  graphite
_diffrn_measurement_device_type  Saturn70
_diffrn_measurement_method       CCD_Profile_fitting
_diffrn_detector_area_resol_mean 28.5714
_diffrn_standards_number         ?
_diffrn_standards_interval_count ?
_diffrn_standards_interval_time  ?
_diffrn_standards_decay_%        ?
_diffrn_reflns_number            10854
_diffrn_reflns_av_R_equivalents  0.0218
_diffrn_reflns_av_sigmaI/netI    0.0201
_diffrn_reflns_limit_h_min       -9
_diffrn_reflns_limit_h_max       9
_diffrn_reflns_limit_k_min       -14
_diffrn_reflns_limit_k_max       11
_diffrn_reflns_limit_l_min       -22
_diffrn_reflns_limit_l_max       22
_diffrn_reflns_theta_min         2.92
_diffrn_reflns_theta_max         27.52
_reflns_number_total             3259
_reflns_number_gt                2743
_reflns_threshold_expression     >2sigma(I)

_computing_data_collection       'CrystalClear (Rigaku/MSC Inc., 2005)'
_computing_cell_refinement       'CrystalClear (Rigaku/MSC Inc., 2005)'
_computing_data_reduction        'CrystalClear (Rigaku/MSC Inc., 2005)'
_computing_structure_solution    'SHELXS-97 (Sheldrick, 1990)'
_computing_structure_refinement  'SHELXL-97 (Sheldrick, 1997)'
_computing_molecular_graphics    ?
_computing_publication_material  ?

_refine_special_details          
;
Refinement of F^2^ against ALL reflections. The weighted R-factor wR and
goodness of fit S are based on F^2^, conventional R-factors R are based
on F, with F set to zero for negative F^2^. The threshold expression of
F^2^ > 2sigma(F^2^) is used only for calculating R-factors(gt) etc. and is
not relevant to the choice of reflections for refinement. R-factors based
on F^2^ are statistically about twice as large as those based on F, and R-
factors based on ALL data will be even larger.
;

_refine_ls_structure_factor_coef Fsqd
_refine_ls_matrix_type           full
_refine_ls_weighting_scheme      calc
_refine_ls_weighting_details     
'calc w=1/[\s^2^(Fo^2^)+(0.0407P)^2^+0.3508P] where P=(Fo^2^+2Fc^2^)/3'
_atom_sites_solution_primary     direct
_atom_sites_solution_secondary   difmap
_atom_sites_solution_hydrogens   geom
_refine_ls_hydrogen_treatment    mixed
_refine_ls_extinction_method     SHELXL
_refine_ls_extinction_coef       0.004(3)
_refine_ls_extinction_expression Fc^*^=kFc[1+0.001xFc^2^\l^3^/sin(2\q)]^-1/4^
_refine_ls_number_reflns         3259
_refine_ls_number_parameters     236
_refine_ls_number_restraints     0
_refine_ls_R_factor_all          0.0321
_refine_ls_R_factor_gt           0.0265
_refine_ls_wR_factor_ref         0.0737
_refine_ls_wR_factor_gt          0.0706
_refine_ls_goodness_of_fit_ref   1.076
_refine_ls_restrained_S_all      1.076
_refine_ls_shift/su_max          0.008
_refine_ls_shift/su_mean         0.000

loop_
_atom_site_label
_atom_site_type_symbol
_atom_site_fract_x
_atom_site_fract_y
_atom_site_fract_z
_atom_site_U_iso_or_equiv
_atom_site_adp_type
_atom_site_occupancy
_atom_site_symmetry_multiplicity
_atom_site_calc_flag
_atom_site_refinement_flags
_atom_site_disorder_assembly
_atom_site_disorder_group
Co1 Co 0.0000 0.5000 0.0000 0.01395(10) Uani 1 2 d S . .
Co2 Co 0.5000 0.5000 0.0000 0.01433(10) Uani 1 2 d S . .
O1 O -0.13034(13) 0.41945(9) 0.09197(5) 0.0228(2) Uani 1 1 d . . .
O3 O -0.37780(13) 0.15250(9) 0.45252(5) 0.0222(2) Uani 1 1 d . . .
O4 O -0.08230(13) 0.12399(9) 0.42710(6) 0.0238(2) Uani 1 1 d . . .
O2 O -0.42577(14) 0.46136(10) 0.10824(5) 0.0254(2) Uani 1 1 d . . .
O5 O 0.25228(12) 0.39600(8) 0.02107(6) 0.0212(2) Uani 1 1 d . . .
C1 C -0.26333(19) 0.37803(12) 0.21087(7) 0.0189(3) Uani 1 1 d . . .
C3 C -0.40060(19) 0.25415(14) 0.30673(8) 0.0255(3) Uani 1 1 d . . .
C9 C -0.09259(18) 0.32661(12) 0.32654(7) 0.0197(3) Uani 1 1 d . . .
C4 C -0.24434(18) 0.25523(12) 0.34928(7) 0.0186(3) Uani 1 1 d . . .
C10 C -0.10196(18) 0.38969(12) 0.25645(7) 0.0190(3) Uani 1 1 d . . .
C11 C -0.27349(18) 0.42543(12) 0.13077(7) 0.0173(3) Uani 1 1 d . . .
C12 C -0.23394(18) 0.17147(11) 0.41586(7) 0.0173(3) Uani 1 1 d . . .
C2 C -0.4093(2) 0.31583(15) 0.23746(8) 0.0263(3) Uani 1 1 d . . .
C7 C 0.1951(2) 0.47568(16) 0.28158(10) 0.0351(4) Uani 1 1 d . . .
H7A H 0.2906 0.5247 0.2671 0.042 Uiso 1 1 calc R . .
C5 C 0.0664(2) 0.34096(14) 0.37204(8) 0.0288(3) Uani 1 1 d . . .
H5A H 0.0752 0.3005 0.4177 0.035 Uiso 1 1 calc R . .
C8 C 0.0451(2) 0.46500(15) 0.23635(8) 0.0274(3) Uani 1 1 d . . .
H8A H 0.0390 0.5078 0.1915 0.033 Uiso 1 1 calc R . .
C6 C 0.2057(2) 0.41264(16) 0.35015(10) 0.0356(4) Uani 1 1 d . . .
C15 C 0.25880(19) 0.29429(13) 0.05021(8) 0.0228(3) Uani 1 1 d . . .
N1 N 0.3904(2) 0.21561(14) 0.04024(12) 0.0557(5) Uani 1 1 d . . .
H1A H 0.4831 0.2273 0.0115 0.067 Uiso 1 1 calc R . .
N2 N 0.1341(3) 0.24758(15) 0.09419(12) 0.0606(6) Uani 1 1 d . . .
C14 C 0.3619(3) 0.10904(17) 0.08241(15) 0.0566(6) Uani 1 1 d . . .
H14A H 0.4606 0.0953 0.1179 0.068 Uiso 1 1 calc R . .
H14B H 0.3507 0.0413 0.0491 0.068 Uiso 1 1 calc R . .
C13 C 0.1848(4) 0.1335(2) 0.1232(2) 0.0667(8) Uani 1 1 d . . .
H6A H 0.308(3) 0.4168(17) 0.3823(12) 0.041(5) Uiso 1 1 d . . .
H2B H 0.048(3) 0.284(2) 0.1060(14) 0.061(7) Uiso 1 1 d . . .
H3A H -0.506(2) 0.2049(17) 0.3229(10) 0.034(5) Uiso 1 1 d . . .
H2A H -0.521(3) 0.3099(17) 0.2080(11) 0.036(5) Uiso 1 1 d . . .
H13A H 0.097(4) 0.082(3) 0.1019(17) 0.083(9) Uiso 1 1 d . . .
H13B H 0.182(5) 0.124(3) 0.178(2) 0.137(15) Uiso 1 1 d . . .

loop_
_atom_site_aniso_label
_atom_site_aniso_U_11
_atom_site_aniso_U_22
_atom_site_aniso_U_33
_atom_site_aniso_U_23
_atom_site_aniso_U_13
_atom_site_aniso_U_12
Co1 0.01416(15) 0.01592(15) 0.01177(14) -0.00172(8) 0.00009(10) -0.00157(9)
Co2 0.01376(15) 0.01765(16) 0.01157(14) 0.00107(8) -0.00025(10) 0.00142(9)
O1 0.0213(5) 0.0300(5) 0.0171(4) 0.0045(4) 0.0035(4) 0.0010(4)
O3 0.0219(5) 0.0229(5) 0.0219(5) 0.0061(4) 0.0050(4) 0.0002(4)
O4 0.0219(5) 0.0266(5) 0.0228(5) 0.0107(4) 0.0018(4) 0.0044(4)
O2 0.0215(5) 0.0390(6) 0.0156(5) 0.0064(4) -0.0012(4) 0.0062(5)
O5 0.0180(5) 0.0192(5) 0.0265(5) 0.0050(4) 0.0003(4) 0.0000(4)
C1 0.0194(7) 0.0222(7) 0.0152(6) 0.0037(5) 0.0004(5) 0.0034(5)
C3 0.0198(7) 0.0334(8) 0.0233(7) 0.0099(6) 0.0012(6) -0.0020(6)
C9 0.0192(7) 0.0211(7) 0.0186(6) 0.0033(5) 0.0000(5) 0.0023(5)
C4 0.0206(7) 0.0196(6) 0.0155(6) 0.0044(5) 0.0020(5) 0.0029(5)
C10 0.0186(7) 0.0214(6) 0.0170(6) 0.0021(5) 0.0011(5) 0.0015(5)
C11 0.0188(7) 0.0186(6) 0.0144(6) 0.0021(5) 0.0006(5) -0.0005(5)
C12 0.0206(7) 0.0170(6) 0.0144(5) 0.0019(5) 0.0002(5) -0.0003(5)
C2 0.0188(7) 0.0386(8) 0.0215(6) 0.0086(6) -0.0027(6) -0.0012(6)
C7 0.0292(9) 0.0411(9) 0.0352(9) 0.0092(7) -0.0017(7) -0.0157(7)
C5 0.0287(8) 0.0327(8) 0.0250(7) 0.0101(6) -0.0087(6) -0.0041(6)
C8 0.0297(8) 0.0308(8) 0.0217(7) 0.0074(6) -0.0001(6) -0.0055(7)
C6 0.0295(9) 0.0432(10) 0.0341(8) 0.0096(7) -0.0125(7) -0.0100(7)
C15 0.0208(7) 0.0218(7) 0.0258(7) 0.0025(6) 0.0005(5) 0.0002(6)
N1 0.0355(9) 0.0305(8) 0.1012(15) 0.0277(9) 0.0322(9) 0.0134(7)
N2 0.0525(11) 0.0385(9) 0.0909(14) 0.0356(9) 0.0460(10) 0.0210(8)
C14 0.0570(13) 0.0299(9) 0.0828(16) 0.0222(10) 0.0195(12) 0.0157(9)
C13 0.0582(15) 0.0375(12) 0.105(2) 0.0383(13) 0.0315(15) 0.0115(11)

_geom_special_details            
;
All esds (except the esd in the dihedral angle between two l.s. planes)
are estimated using the full covariance matrix. The cell esds are taken
into account individually in the estimation of esds in distances, angles
and torsion angles; correlations between esds in cell parameters are only
used when they are defined by crystal symmetry. An approximate (isotropic)
treatment of cell esds is used for estimating esds involving l.s. planes.
;

loop_
_geom_bond_atom_site_label_1
_geom_bond_atom_site_label_2
_geom_bond_distance
_geom_bond_site_symmetry_2
_geom_bond_publ_flag
Co1 O4 1.9979(10) 2 ?
Co1 O4 1.9979(10) 4_565 ?
Co1 O1 2.0964(10) . ?
Co1 O1 2.0964(10) 3_565 ?
Co1 O5 2.2240(10) 3_565 ?
Co1 O5 2.2240(10) . ?
Co2 O2 2.0357(10) 1_655 ?
Co2 O2 2.0357(10) 3_565 ?
Co2 O3 2.1192(10) 4_665 ?
Co2 O3 2.1192(10) 2 ?
Co2 O5 2.1975(10) . ?
Co2 O5 2.1975(10) 3_665 ?
O1 C11 1.2571(16) . ?
O3 C12 1.2579(16) . ?
O3 Co2 2.1192(10) 2_545 ?
O4 C12 1.2509(17) . ?
O4 Co1 1.9979(10) 2_545 ?
O2 C11 1.2530(17) . ?
O2 Co2 2.0357(10) 1_455 ?
O5 C15 1.2622(17) . ?
C1 C2 1.366(2) . ?
C1 C10 1.4364(19) . ?
C1 C11 1.5158(17) . ?
C3 C4 1.370(2) . ?
C3 C2 1.4108(19) . ?
C3 H3A 0.998(19) . ?
C9 C5 1.424(2) . ?
C9 C10 1.4316(18) . ?
C9 C4 1.4336(19) . ?
C4 C12 1.5131(17) . ?
C10 C8 1.421(2) . ?
C2 H2A 0.97(2) . ?
C7 C8 1.364(2) . ?
C7 C6 1.408(2) . ?
C7 H7A 0.9300 . ?
C5 C6 1.362(2) . ?
C5 H5A 0.9300 . ?
C8 H8A 0.9300 . ?
C6 H6A 0.94(2) . ?
C15 N2 1.313(2) . ?
C15 N1 1.325(2) . ?
N1 C14 1.434(2) . ?
N1 H1A 0.8600 . ?
N2 C13 1.438(3) . ?
N2 H2B 0.79(2) . ?
C14 C13 1.512(3) . ?
C14 H14A 0.9700 . ?
C14 H14B 0.9700 . ?
C13 H13A 0.94(3) . ?
C13 H13B 0.97(4) . ?

loop_
_geom_angle_atom_site_label_1
_geom_angle_atom_site_label_2
_geom_angle_atom_site_label_3
_geom_angle
_geom_angle_site_symmetry_1
_geom_angle_site_symmetry_3
_geom_angle_publ_flag
O4 Co1 O4 180.00(4) 2 4_565 ?
O4 Co1 O1 86.74(4) 2 . ?
O4 Co1 O1 93.26(4) 4_565 . ?
O4 Co1 O1 93.26(4) 2 3_565 ?
O4 Co1 O1 86.74(4) 4_565 3_565 ?
O1 Co1 O1 180.00(5) . 3_565 ?
O4 Co1 O5 89.22(4) 2 3_565 ?
O4 Co1 O5 90.78(4) 4_565 3_565 ?
O1 Co1 O5 88.82(4) . 3_565 ?
O1 Co1 O5 91.18(4) 3_565 3_565 ?
O4 Co1 O5 90.78(4) 2 . ?
O4 Co1 O5 89.22(4) 4_565 . ?
O1 Co1 O5 91.18(4) . . ?
O1 Co1 O5 88.82(4) 3_565 . ?
O5 Co1 O5 180.00(5) 3_565 . ?
O2 Co2 O2 180.00(6) 1_655 3_565 ?
O2 Co2 O3 94.86(4) 1_655 4_665 ?
O2 Co2 O3 85.14(4) 3_565 4_665 ?
O2 Co2 O3 85.14(4) 1_655 2 ?
O2 Co2 O3 94.86(4) 3_565 2 ?
O3 Co2 O3 180.00(5) 4_665 2 ?
O2 Co2 O5 86.86(4) 1_655 . ?
O2 Co2 O5 93.14(4) 3_565 . ?
O3 Co2 O5 88.93(4) 4_665 . ?
O3 Co2 O5 91.07(4) 2 . ?
O2 Co2 O5 93.14(4) 1_655 3_665 ?
O2 Co2 O5 86.86(4) 3_565 3_665 ?
O3 Co2 O5 91.07(4) 4_665 3_665 ?
O3 Co2 O5 88.93(4) 2 3_665 ?
O5 Co2 O5 180.00(5) . 3_665 ?
C11 O1 Co1 141.48(9) . . ?
C12 O3 Co2 134.35(9) . 2_545 ?
C12 O4 Co1 132.20(9) . 2_545 ?
C11 O2 Co2 127.23(9) . 1_455 ?
C15 O5 Co2 121.82(9) . . ?
C15 O5 Co1 125.59(9) . . ?
Co2 O5 Co1 112.09(4) . . ?
C2 C1 C10 120.00(12) . . ?
C2 C1 C11 117.84(12) . . ?
C10 C1 C11 122.01(12) . . ?
C4 C3 C2 120.55(13) . . ?
C4 C3 H3A 119.9(11) . . ?
C2 C3 H3A 119.4(11) . . ?
C5 C9 C10 118.00(12) . . ?
C5 C9 C4 122.76(12) . . ?
C10 C9 C4 119.20(12) . . ?
C3 C4 C9 120.03(12) . . ?
C3 C4 C12 117.53(12) . . ?
C9 C4 C12 122.23(12) . . ?
C8 C10 C9 118.72(13) . . ?
C8 C10 C1 122.70(12) . . ?
C9 C10 C1 118.52(12) . . ?
O2 C11 O1 126.10(12) . . ?
O2 C11 C1 116.99(11) . . ?
O1 C11 C1 116.81(12) . . ?
O4 C12 O3 126.26(12) . . ?
O4 C12 C4 115.86(11) . . ?
O3 C12 C4 117.82(12) . . ?
C1 C2 C3 121.33(14) . . ?
C1 C2 H2A 120.7(11) . . ?
C3 C2 H2A 117.9(11) . . ?
C8 C7 C6 120.16(15) . . ?
C8 C7 H7A 119.9 . . ?
C6 C7 H7A 119.9 . . ?
C6 C5 C9 121.43(14) . . ?
C6 C5 H5A 119.3 . . ?
C9 C5 H5A 119.3 . . ?
C7 C8 C10 121.24(14) . . ?
C7 C8 H8A 119.4 . . ?
C10 C8 H8A 119.4 . . ?
C5 C6 C7 120.43(15) . . ?
C5 C6 H6A 117.1(12) . . ?
C7 C6 H6A 122.4(12) . . ?
O5 C15 N2 125.67(14) . . ?
O5 C15 N1 125.85(13) . . ?
N2 C15 N1 108.46(14) . . ?
C15 N1 C14 112.91(14) . . ?
C15 N1 H1A 123.5 . . ?
C14 N1 H1A 123.5 . . ?
C15 N2 C13 113.12(16) . . ?
C15 N2 H2B 120.7(18) . . ?
C13 N2 H2B 125.8(18) . . ?
N1 C14 C13 102.71(15) . . ?
N1 C14 H14A 111.2 . . ?
C13 C14 H14A 111.2 . . ?
N1 C14 H14B 111.2 . . ?
C13 C14 H14B 111.2 . . ?
H14A C14 H14B 109.1 . . ?
N2 C13 C14 102.51(17) . . ?
N2 C13 H13A 103.7(19) . . ?
C14 C13 H13A 106.3(19) . . ?
N2 C13 H13B 116(2) . . ?
C14 C13 H13B 118(2) . . ?
H13A C13 H13B 108(3) . . ?

loop_
_geom_hbond_atom_site_label_D
_geom_hbond_atom_site_label_H
_geom_hbond_atom_site_label_A
_geom_hbond_distance_DH
_geom_hbond_distance_HA
_geom_hbond_distance_DA
_geom_hbond_angle_DHA
_geom_hbond_site_symmetry_A
N1 H1A O3 0.86 2.00 2.7451(18) 145.0 4_665
N2 H2B O1 0.79(2) 2.03(3) 2.747(2) 152(2) .

_diffrn_measured_fraction_theta_max 0.966
_diffrn_reflns_theta_full        27.52
_diffrn_measured_fraction_theta_full 0.966
_refine_diff_density_max         0.353
_refine_diff_density_min         -0.253
_refine_diff_density_rms         0.048
